# Solution for model SBM-110-StripPacking-15
# Objective value = 4.9999999994899994e+01
c[B0,0] 95
c[B0,1] 6
c[B1,0] 69
c[B1,1] 3.3499999994899994e+01
c[B2,0] 6.5
c[B2,1] 1.3499999994900001e+01
c[B3,0] 84.5
c[B3,1] 9.9999999949000014e+00
c[B4,0] 9
c[B4,1] 3.9999999994899994e+01
c[B5,0] 66
c[B5,1] 13.5
c[B6,0] 34
c[B6,1] 3.7999999994899994e+01
c[B7,0] 55
c[B7,1] 4.6499999994899994e+01
c[B8,0] 87
c[B8,1] 4.4499999994899994e+01
c[B9,0] 31
c[B9,1] 17.9999999949
c[B10,0] 46
c[B10,1] 16.5
c[B11,0] 18.5
c[B11,1] 12.5
c[B12,0] 51.5
c[B12,1] 3.5499999994899994e+01
c[B13,0] 70
c[B13,1] 4.4499999994899994e+01
c[B14,0] 87
c[B14,1] 28.4999999949
h 4.9999999994899994e+01
delta[B0,B1] 1
delta[B0,B2] 1
delta[B0,B3] 1
delta[B0,B4] 1
delta[B0,B5] 1
delta[B0,B6] 1
delta[B0,B7] 1
delta[B0,B8] 1
delta[B0,B9] 1
delta[B0,B10] 1
delta[B0,B11] 1
delta[B0,B12] 1
delta[B0,B13] 1
delta[B0,B14] 1
delta[B1,B0] 0
delta[B1,B2] 1
delta[B1,B3] 0
delta[B1,B4] 1
delta[B1,B5] 0
delta[B1,B6] 1
delta[B1,B7] 1
delta[B1,B8] 0
delta[B1,B9] 1
delta[B1,B10] 1
delta[B1,B11] 0
delta[B1,B12] 1
delta[B1,B13] 1
delta[B1,B14] 0
delta[B2,B0] 1
delta[B2,B1] 1
delta[B2,B3] 0
delta[B2,B4] 1
delta[B2,B5] 0
delta[B2,B6] 1
delta[B2,B7] 1
delta[B2,B8] 0
delta[B2,B9] 0
delta[B2,B10] 1
delta[B2,B11] 1
delta[B2,B12] 1
delta[B2,B13] 1
delta[B2,B14] 1
delta[B3,B0] 1
delta[B3,B1] 1
delta[B3,B2] 0
delta[B3,B4] 1
delta[B3,B5] 1
delta[B3,B6] 1
delta[B3,B7] 1
delta[B3,B8] 1
delta[B3,B9] 1
delta[B3,B10] 0
delta[B3,B11] 0
delta[B3,B12] 0
delta[B3,B13] 1
delta[B3,B14] 1
delta[B4,B0] 1
delta[B4,B1] 1
delta[B4,B2] 0
delta[B4,B3] 1
delta[B4,B5] 0
delta[B4,B6] 0
delta[B4,B7] 0
delta[B4,B8] 0
delta[B4,B9] 0
delta[B4,B10] 1
delta[B4,B11] 0
delta[B4,B12] 1
delta[B4,B13] 1
delta[B4,B14] 1
delta[B5,B0] 1
delta[B5,B1] 1
delta[B5,B2] 0
delta[B5,B3] 1
delta[B5,B4] 0
delta[B5,B6] 1
delta[B5,B7] 1
delta[B5,B8] 1
delta[B5,B9] 1
delta[B5,B10] 0
delta[B5,B11] 0
delta[B5,B12] 1
delta[B5,B13] 1
delta[B5,B14] 1
delta[B6,B0] 1
delta[B6,B1] 1
delta[B6,B2] 0
delta[B6,B3] 1
delta[B6,B4] 0
delta[B6,B5] 1
delta[B6,B7] 0
delta[B6,B8] 0
delta[B6,B9] 0
delta[B6,B10] 0
delta[B6,B11] 0
delta[B6,B12] 1
delta[B6,B13] 1
delta[B6,B14] 1
delta[B7,B0] 0
delta[B7,B1] 1
delta[B7,B2] 0
delta[B7,B3] 1
delta[B7,B4] 0
delta[B7,B5] 0
delta[B7,B6] 0
delta[B7,B8] 0
delta[B7,B9] 1
delta[B7,B10] 0
delta[B7,B11] 0
delta[B7,B12] 0
delta[B7,B13] 1
delta[B7,B14] 1
delta[B8,B0] 0
delta[B8,B1] 0
delta[B8,B2] 0
delta[B8,B3] 0
delta[B8,B4] 0
delta[B8,B5] 0
delta[B8,B6] 0
delta[B8,B7] 0
delta[B8,B9] 1
delta[B8,B10] 0
delta[B8,B11] 0
delta[B8,B12] 0
delta[B8,B13] 0
delta[B8,B14] 0
delta[B9,B0] 1
delta[B9,B1] 1
delta[B9,B2] 0
delta[B9,B3] 1
delta[B9,B4] 0
delta[B9,B5] 1
delta[B9,B6] 1
delta[B9,B7] 1
delta[B9,B8] 1
delta[B9,B10] 1
delta[B9,B11] 0
delta[B9,B12] 1
delta[B9,B13] 1
delta[B9,B14] 1
delta[B10,B0] 1
delta[B10,B1] 1
delta[B10,B2] 1
delta[B10,B3] 0
delta[B10,B4] 1
delta[B10,B5] 0
delta[B10,B6] 1
delta[B10,B7] 1
delta[B10,B8] 1
delta[B10,B9] 1
delta[B10,B11] 1
delta[B10,B12] 1
delta[B10,B13] 1
delta[B10,B14] 0
delta[B11,B0] 1
delta[B11,B1] 1
delta[B11,B2] 1
delta[B11,B3] 0
delta[B11,B4] 1
delta[B11,B5] 0
delta[B11,B6] 1
delta[B11,B7] 1
delta[B11,B8] 0
delta[B11,B9] 0
delta[B11,B10] 1
delta[B11,B12] 0
delta[B11,B13] 0
delta[B11,B14] 0
delta[B12,B0] 0
delta[B12,B1] 1
delta[B12,B2] 0
delta[B12,B3] 0
delta[B12,B4] 1
delta[B12,B5] 0
delta[B12,B6] 1
delta[B12,B7] 1
delta[B12,B8] 0
delta[B12,B9] 1
delta[B12,B10] 0
delta[B12,B11] 0
delta[B12,B13] 0
delta[B12,B14] 0
delta[B13,B0] 0
delta[B13,B1] 0
delta[B13,B2] 0
delta[B13,B3] 0
delta[B13,B4] 1
delta[B13,B5] 0
delta[B13,B6] 1
delta[B13,B7] 1
delta[B13,B8] 0
delta[B13,B9] 1
delta[B13,B10] 0
delta[B13,B11] 0
delta[B13,B12] 0
delta[B13,B14] 0
delta[B14,B0] 0
delta[B14,B1] 0
delta[B14,B2] 1
delta[B14,B3] 0
delta[B14,B4] 1
delta[B14,B5] 1
delta[B14,B6] 1
delta[B14,B7] 1
delta[B14,B8] 1
delta[B14,B9] 1
delta[B14,B10] 0
delta[B14,B11] 0
delta[B14,B12] 0
delta[B14,B13] 0
DELTA[B0,B1] 0
DELTA[B0,B2] 1
DELTA[B0,B3] 1
DELTA[B0,B4] 1
DELTA[B0,B5] 1
DELTA[B0,B6] 1
DELTA[B0,B7] 0
DELTA[B0,B8] 0
DELTA[B0,B9] 1
DELTA[B0,B10] 1
DELTA[B0,B11] 1
DELTA[B0,B12] 0
DELTA[B0,B13] 0
DELTA[B0,B14] 0
DELTA[B1,B2] 1
DELTA[B1,B3] 0
DELTA[B1,B4] 1
DELTA[B1,B5] 0
DELTA[B1,B6] 1
DELTA[B1,B7] 1
DELTA[B1,B8] 0
DELTA[B1,B9] 1
DELTA[B1,B10] 1
DELTA[B1,B11] 0
DELTA[B1,B12] 1
DELTA[B1,B13] 0
DELTA[B1,B14] 0
DELTA[B2,B3] 0
DELTA[B2,B4] 0
DELTA[B2,B5] 0
DELTA[B2,B6] 0
DELTA[B2,B7] 0
DELTA[B2,B8] 0
DELTA[B2,B9] 0
DELTA[B2,B10] 1
DELTA[B2,B11] 1
DELTA[B2,B12] 0
DELTA[B2,B13] 0
DELTA[B2,B14] 1
DELTA[B3,B4] 1
DELTA[B3,B5] 1
DELTA[B3,B6] 1
DELTA[B3,B7] 1
DELTA[B3,B8] 0
DELTA[B3,B9] 1
DELTA[B3,B10] 0
DELTA[B3,B11] 0
DELTA[B3,B12] 0
DELTA[B3,B13] 0
DELTA[B3,B14] 0
DELTA[B4,B5] 0
DELTA[B4,B6] 0
DELTA[B4,B7] 0
DELTA[B4,B8] 0
DELTA[B4,B9] 0
DELTA[B4,B10] 1
DELTA[B4,B11] 0
DELTA[B4,B12] 1
DELTA[B4,B13] 1
DELTA[B4,B14] 1
DELTA[B5,B6] 1
DELTA[B5,B7] 0
DELTA[B5,B8] 0
DELTA[B5,B9] 1
DELTA[B5,B10] 0
DELTA[B5,B11] 0
DELTA[B5,B12] 0
DELTA[B5,B13] 0
DELTA[B5,B14] 1
DELTA[B6,B7] 0
DELTA[B6,B8] 0
DELTA[B6,B9] 0
DELTA[B6,B10] 0
DELTA[B6,B11] 0
DELTA[B6,B12] 1
DELTA[B6,B13] 1
DELTA[B6,B14] 1
DELTA[B7,B8] 0
DELTA[B7,B9] 1
DELTA[B7,B10] 0
DELTA[B7,B11] 0
DELTA[B7,B12] 0
DELTA[B7,B13] 1
DELTA[B7,B14] 1
DELTA[B8,B9] 1
DELTA[B8,B10] 0
DELTA[B8,B11] 0
DELTA[B8,B12] 0
DELTA[B8,B13] 0
DELTA[B8,B14] 0
DELTA[B9,B10] 1
DELTA[B9,B11] 0
DELTA[B9,B12] 1
DELTA[B9,B13] 1
DELTA[B9,B14] 1
DELTA[B10,B11] 1
DELTA[B10,B12] 0
DELTA[B10,B13] 0
DELTA[B10,B14] 0
DELTA[B11,B12] 0
DELTA[B11,B13] 0
DELTA[B11,B14] 0
DELTA[B12,B13] 0
DELTA[B12,B14] 0
DELTA[B13,B14] 0
